10 3
2 0 1000 10
3 0 1000 10
2 0 1000 10
4 0 1000 10
2 0 1000 10
1 0 1000 10
3 0 1000 10
2 0 1000 10
4 0 1000 10
2 0 1000 10
0 1000
10 1000
10 1000
10 1000

50 50
12 88
95 17
33 77
68 54
21 39
84 92
57 13
76 68
44 81
29 60